NAME          DCAP_2_4_3_200_SS104
ROWS
 N  OBJ
 L  CON1
 L  CON2
 L  CON3
 L  CON4
 L  CON5
 L  CON6
 L  CON7
 L  CON8
 L  CON9
 L  CON10
 L  CON11
 L  CON12
 E  CON13
 E  CON14
 E  CON15
 E  CON16
 E  CON17
 E  CON18
 E  CON19
 E  CON20
 E  CON21
 E  CON22
 E  CON23
 E  CON24
COLUMNS
    x[1,1]    OBJ       6.180167      CON1      1.000000    
    x[1,1]    CON7      -1.000000     CON8      -1.000000   
    x[1,1]    CON9      -1.000000   
    x[1,2]    OBJ       6.563535      CON2      1.000000    
    x[1,2]    CON8      -1.000000     CON9      -1.000000   
    x[1,3]    OBJ       7.443064      CON3      1.000000    
    x[1,3]    CON9      -1.000000   
    x[2,1]    OBJ       6.732585      CON4      1.000000    
    x[2,1]    CON10     -1.000000     CON11     -1.000000   
    x[2,1]    CON12     -1.000000   
    x[2,2]    OBJ       5.039546      CON5      1.000000    
    x[2,2]    CON11     -1.000000     CON12     -1.000000   
    x[2,3]    OBJ       6.054841      CON6      1.000000    
    x[2,3]    CON12     -1.000000   
    MARKER    'MARKER'                'INTORG'
    u[1,1]    OBJ       48.076654     CON1      -1.000000   
    u[1,2]    OBJ       20.066487     CON2      -1.000000   
    u[1,3]    OBJ       32.230043     CON3      -1.000000   
    u[2,1]    OBJ       49.996186     CON4      -1.000000   
    u[2,2]    OBJ       49.466655     CON5      -1.000000   
    u[2,3]    OBJ       27.484319     CON6      -1.000000   
    y[1,1,1]  OBJ       5.382042      CON7      0.975318    
    y[1,1,1]  CON13     1.000000    
    y[1,1,2]  OBJ       6.721080      CON8      1.207105    
    y[1,1,2]  CON14     1.000000    
    y[1,1,3]  OBJ       5.132133      CON9      0.951648    
    y[1,1,3]  CON15     1.000000    
    y[1,2,1]  OBJ       6.572406      CON7      0.908126    
    y[1,2,1]  CON16     1.000000    
    y[1,2,2]  OBJ       6.064991      CON8      0.706041    
    y[1,2,2]  CON17     1.000000    
    y[1,2,3]  OBJ       5.502677      CON9      1.243947    
    y[1,2,3]  CON18     1.000000    
    y[1,3,1]  OBJ       8.025084      CON7      0.948701    
    y[1,3,1]  CON19     1.000000    
    y[1,3,2]  OBJ       9.326942      CON8      0.759501    
    y[1,3,2]  CON20     1.000000    
    y[1,3,3]  OBJ       5.875932      CON9      1.084032    
    y[1,3,3]  CON21     1.000000    
    y[1,4,1]  OBJ       7.936286      CON7      0.605954    
    y[1,4,1]  CON22     1.000000    
    y[1,4,2]  OBJ       7.747114      CON8      1.181637    
    y[1,4,2]  CON23     1.000000    
    y[1,4,3]  OBJ       5.560271      CON9      1.274711    
    y[1,4,3]  CON24     1.000000    
    y[2,1,1]  OBJ       5.813371      CON10     0.975318    
    y[2,1,1]  CON13     1.000000    
    y[2,1,2]  OBJ       6.920793      CON11     1.207105    
    y[2,1,2]  CON14     1.000000    
    y[2,1,3]  OBJ       8.743254      CON12     0.951648    
    y[2,1,3]  CON15     1.000000    
    y[2,2,1]  OBJ       8.712231      CON10     0.908126    
    y[2,2,1]  CON16     1.000000    
    y[2,2,2]  OBJ       5.260681      CON11     0.706041    
    y[2,2,2]  CON17     1.000000    
    y[2,2,3]  OBJ       7.746037      CON12     1.243947    
    y[2,2,3]  CON18     1.000000    
    y[2,3,1]  OBJ       5.236618      CON10     0.948701    
    y[2,3,1]  CON19     1.000000    
    y[2,3,2]  OBJ       9.953827      CON11     0.759501    
    y[2,3,2]  CON20     1.000000    
    y[2,3,3]  OBJ       6.338618      CON12     1.084032    
    y[2,3,3]  CON21     1.000000    
    y[2,4,1]  OBJ       5.057705      CON10     0.605954    
    y[2,4,1]  CON22     1.000000    
    y[2,4,2]  OBJ       5.439443      CON11     1.181637    
    y[2,4,2]  CON23     1.000000    
    y[2,4,3]  OBJ       5.414929      CON12     1.274711    
    y[2,4,3]  CON24     1.000000    
    z[1,1]    OBJ       858.797572    CON13     1.000000    
    z[1,2]    OBJ       742.857932    CON14     1.000000    
    z[1,3]    OBJ       926.466732    CON15     1.000000    
    z[2,1]    OBJ       911.673819    CON16     1.000000    
    z[2,2]    OBJ       521.110680    CON17     1.000000    
    z[2,3]    OBJ       830.408662    CON18     1.000000    
    z[3,1]    OBJ       762.143770    CON19     1.000000    
    z[3,2]    OBJ       713.414198    CON20     1.000000    
    z[3,3]    OBJ       652.080677    CON21     1.000000    
    z[4,1]    OBJ       605.416185    CON22     1.000000    
    z[4,2]    OBJ       713.107142    CON23     1.000000    
    z[4,3]    OBJ       570.578503    CON24     1.000000    
    MARKER    'MARKER'                 'INTEND'
RHS
    RHS       CON1      -0.000000     CON2      -0.000000   
    RHS       CON3      -0.000000     CON4      -0.000000   
    RHS       CON5      -0.000000     CON6      -0.000000   
    RHS       CON7      -0.000000     CON8      -0.000000   
    RHS       CON9      -0.000000     CON10     -0.000000   
    RHS       CON11     -0.000000     CON12     -0.000000   
    RHS       CON13     1.000000      CON14     1.000000    
    RHS       CON15     1.000000      CON16     1.000000    
    RHS       CON17     1.000000      CON18     1.000000    
    RHS       CON19     1.000000      CON20     1.000000    
    RHS       CON21     1.000000      CON22     1.000000    
    RHS       CON23     1.000000      CON24     1.000000    
BOUNDS
 BV BOUND     u[1,1]  
 BV BOUND     u[1,2]  
 BV BOUND     u[1,3]  
 BV BOUND     u[2,1]  
 BV BOUND     u[2,2]  
 BV BOUND     u[2,3]  
 BV BOUND     y[1,1,1]
 BV BOUND     y[1,1,2]
 BV BOUND     y[1,1,3]
 BV BOUND     y[1,2,1]
 BV BOUND     y[1,2,2]
 BV BOUND     y[1,2,3]
 BV BOUND     y[1,3,1]
 BV BOUND     y[1,3,2]
 BV BOUND     y[1,3,3]
 BV BOUND     y[1,4,1]
 BV BOUND     y[1,4,2]
 BV BOUND     y[1,4,3]
 BV BOUND     y[2,1,1]
 BV BOUND     y[2,1,2]
 BV BOUND     y[2,1,3]
 BV BOUND     y[2,2,1]
 BV BOUND     y[2,2,2]
 BV BOUND     y[2,2,3]
 BV BOUND     y[2,3,1]
 BV BOUND     y[2,3,2]
 BV BOUND     y[2,3,3]
 BV BOUND     y[2,4,1]
 BV BOUND     y[2,4,2]
 BV BOUND     y[2,4,3]
 BV BOUND     z[1,1]  
 BV BOUND     z[1,2]  
 BV BOUND     z[1,3]  
 BV BOUND     z[2,1]  
 BV BOUND     z[2,2]  
 BV BOUND     z[2,3]  
 BV BOUND     z[3,1]  
 BV BOUND     z[3,2]  
 BV BOUND     z[3,3]  
 BV BOUND     z[4,1]  
 BV BOUND     z[4,2]  
 BV BOUND     z[4,3]  
ENDATA
